c description: Random 3-CNF over 20 variables and 85 clauses
c generator: CNFgen (0.9.2)
c copyright: (C) 2012-2022 Massimo Lauria <massimo.lauria@uniroma1.it>
c url: https://massimolauria.net/cnfgen
c command line: cnfgen --output CNF_4.28/20_bit_85_885.cnf randkcnf 3 20 85
c
p cnf 20 85
8 -9 -19 0
-2 14 -17 0
-3 11 17 0
4 10 15 0
9 -15 -18 0
5 -16 -19 0
-3 8 -18 0
1 -5 16 0
-4 16 -17 0
1 12 -17 0
-1 7 18 0
4 -15 16 0
4 6 14 0
11 -16 -18 0
-4 -9 11 0
-10 15 20 0
-6 -11 -12 0
-2 -12 14 0
-4 7 -9 0
-1 -5 -7 0
-4 6 -15 0
12 -14 -19 0
3 -5 14 0
-5 11 -19 0
1 -2 9 0
-2 14 16 0
-2 -12 -16 0
-7 9 -18 0
3 -16 -17 0
-1 11 -18 0
-3 -15 -16 0
-4 11 -19 0
-3 -13 20 0
2 -11 -19 0
-6 -12 -16 0
11 -15 -19 0
-3 13 -16 0
9 17 -18 0
5 12 13 0
-6 8 -9 0
9 -11 20 0
-14 16 18 0
5 13 15 0
-6 -12 17 0
-4 8 9 0
6 -7 13 0
-3 9 -15 0
8 -17 18 0
-3 10 -14 0
-2 -5 20 0
2 9 -19 0
5 6 17 0
-4 -7 -20 0
6 -12 -16 0
5 6 -17 0
-7 8 -10 0
-3 -9 -20 0
-10 -13 20 0
4 5 -12 0
1 10 19 0
-8 -11 16 0
-7 17 20 0
-1 -18 20 0
-15 16 18 0
1 -11 13 0
-5 -9 20 0
-2 3 -19 0
-1 6 -20 0
7 11 19 0
-1 -2 -7 0
-2 -17 -20 0
7 -12 19 0
4 -6 14 0
-4 -5 15 0
-4 7 -18 0
13 14 -20 0
1 -6 19 0
-2 -6 16 0
4 7 18 0
8 16 19 0
-7 -11 12 0
5 9 -13 0
1 9 -12 0
6 10 -13 0
3 6 11 0
